p cnf 7230 16
-4546 -6797 -6800 0
-6798 6800 0
6755 -6796 0
-4544 -6755 -6795 0
-5086 -6773 -6793 0
4544 -6796 0
5086 -6794 0
6797 6798 0
6795 6796 0
6793 6794 0
4546 -6798 0
6773 -6794 0
6799 6800 0
6753 -6800 0
-6753 -6799 0
6755 -6802 0
